F=506;
S=13;
M=5;
A=[1,3,10,70,500];
B=[-0,0.66,5.35,59.35,489.35];
Si=[{3,0},
    {1},
    {9},
    {9},
    {3,2},
    {3},
    {9,4},
    {9,5},
    {1,6},
    {1},
    {3,0,7},
    {3,0,8},
    {1},
    {9,5},
    {9},
    {3,10},
    {3,0,11},
    {3},
    {3,10,12},
    {1},
    {3,0,7},
    {3,0},
    {0,3},
    {0,3,1},
    {0},
    {0,9},
    {0,3,2},
    {0,3},
    {0,9,4},
    {0,9,5},
    {0,7,6},
    {0,7,6},
    {0,7},
    {0,8},
    {0,8},
    {0,9,5},
    {0,9},
    {0,3,10},
    {0,11},
    {0,3},
    {0,3,10,12},
    {0,3},
    {0,7},
    {0},
    {1},
    {1,3,0},
    {1,9},
    {1,9},
    {1,3,2},
    {1,3},
    {1,9,4},
    {1,9,5},
    {1,6},
    {1},
    {1,6,7},
    {1,8},
    {1},
    {1,9,5},
    {1,9},
    {1,6,10},
    {1,11},
    {1,3},
    {1,6,10,12},
    {1},
    {1,6,7},
    {1,6,10},
    {9},
    {0},
    {9,1},
    {9},
    {0,3,2},
    {0,3},
    {9,4},
    {9,5},
    {9,6},
    {9,6},
    {0,7},
    {0,8},
    {0,8},
    {9,5},
    {9},
    {0,3,10},
    {0,11},
    {0,3},
    {9,5,12},
    {0,3},
    {0,7},
    {0},
    {9},
    {9,0},
    {9,1},
    {9},
    {9,3,2},
    {9,3},
    {4},
    {4,5},
    {9,6},
    {9,6},
    {9,6,7},
    {9,0,8},
    {9,1},
    {4,5},
    {9},
    {9,6,10},
    {9,0,11},
    {9,3},
    {4,5,12},
    {9,1},
    {9,6,7},
    {9,0},
    {2,3},
    {2,3,0},
    {2,3,1},
    {2,3,0},
    {2,3,9},
    {2,3},
    {2,3,9,4},
    {2,3,9,5},
    {2,3,10,6},
    {2,3,1},
    {2,3,0,7},
    {2,8},
    {2,8},
    {2,3,10,12},
    {2,3,9},
    {2,3,10},
    {2,3,0,11},
    {2},
    {2,3,10,12},
    {2,3},
    {2,3,0,7},
    {2,3,0},
    {3},
    {3,0},
    {3,1},
    {3,0},
    {3,9},
    {3,2},
    {3,9,4},
    {3,9,5},
    {3,10,6},
    {3,1},
    {3,0,7},
    {3,0,8},
    {3,1},
    {3,10,12},
    {3,9},
    {3,10},
    {3,0,11},
    {3},
    {3,10,12},
    {3},
    {3,0,7},
    {3,0},
    {4,9},
    {4,9,0},
    {4,9,1},
    {4,9},
    {4},
    {4,9,3,2},
    {4,9,3},
    {4,5},
    {4,9,6},
    {4,9,6},
    {4,9,6,7},
    {4,9,0,8},
    {4,9,1},
    {4,5},
    {4,9},
    {4,9,6,10},
    {4,9,0,11},
    {4,9,3},
    {4,5,12},
    {4,9,1},
    {4,5,12},
    {4,9,0},
    {5,9},
    {5,9,0},
    {5,9,1},
    {5,9},
    {5,4},
    {5,9,3,2},
    {5,9,3},
    {5,4},
    {5,9,6},
    {5,9,6},
    {5,9,6,7},
    {5,9,0,8},
    {5,9,1},
    {5},
    {5,9},
    {5,9,6,10},
    {5,9,0,11},
    {5,9,3},
    {5,12},
    {5,9,1},
    {5,12},
    {5,9,0},
    {6,1},
    {6,7,0},
    {6,1},
    {6,9},
    {6,9},
    {6,10,3,2},
    {6,10,3},
    {6,9,4},
    {6,9,5},
    {6},
    {6,7},
    {6,10,8},
    {6,1},
    {6,9,5},
    {6,9},
    {6,10},
    {6,7,0,11},
    {6,10,3},
    {6,10,12},
    {6,1},
    {6,7},
    {6,10},
    {1},
    {6,7,0},
    {1},
    {6,9},
    {6,9},
    {1,3,2},
    {1,3},
    {6,9,4},
    {6,9,5},
    {6},
    {6,7},
    {1,8},
    {1},
    {6,9,5},
    {6,9},
    {6,10},
    {1,11},
    {1,3},
    {6,10,12},
    {1},
    {6,7},
    {6,10},
    {7,0,3},
    {7,0},
    {7,6,1},
    {7,0},
    {7,6,9},
    {7,0,3,2},
    {7,0,3},
    {7,6,9,4},
    {7,6,9,5},
    {7,6},
    {7,6},
    {7,0,8},
    {7,6,1},
    {7,12},
    {7,6,9},
    {7,6,10},
    {7,0,11},
    {7,0,3},
    {7,12},
    {7,0,3},
    {7},
    {7,0},
    {8,0,3},
    {8,0},
    {8,1},
    {8,0},
    {8,0,9},
    {8,2},
    {8,0,3},
    {8,0,9,4},
    {8,0,9,5},
    {8,10,6},
    {8,1},
    {8,0,7},
    {8},
    {8,10,12},
    {8,0,9},
    {8,10},
    {8,0,11},
    {8},
    {8,10,12},
    {8,0,3},
    {8,0,7},
    {8,0},
    {1},
    {8,0},
    {1},
    {8,0},
    {1,9},
    {8,2},
    {1,3},
    {1,9,4},
    {1,9,5},
    {1,6},
    {1},
    {1,6,7},
    {8},
    {8,10,12},
    {1,9},
    {8,10},
    {8,0,11},
    {8},
    {8,10,12},
    {1},
    {1,6,7},
    {8,0},
    {5,9},
    {5,9,0},
    {5,9,1},
    {5,9},
    {5,4},
    {12,10,3,2},
    {12,10,3},
    {5,4},
    {5},
    {5,9,6},
    {5,9,6},
    {12,7},
    {12,10,8},
    {12,10,8},
    {5,9},
    {12,10},
    {5,9,0,11},
    {12,10,3},
    {12},
    {12,10,3},
    {12},
    {12,10},
    {9},
    {9,0},
    {9,1},
    {9},
    {9},
    {9,3,2},
    {9,3},
    {9,4},
    {9,5},
    {9,6},
    {9,6},
    {9,6,7},
    {9,0,8},
    {9,1},
    {9,5},
    {9,6,10},
    {9,0,11},
    {9,3},
    {9,5,12},
    {9,1},
    {9,6,7},
    {9,0},
    {10,3},
    {10,3,0},
    {10,6,1},
    {10,3,0},
    {10,6,9},
    {10,3,2},
    {10,3},
    {10,6,9,4},
    {10,6,9,5},
    {10,6},
    {10,6},
    {10,6,7},
    {10,8},
    {10,8},
    {10,12},
    {10,6,9},
    {10,3,0,11},
    {10,3},
    {10,12},
    {10,3},
    {10,12},
    {10},
    {11,0,3},
    {11,0},
    {11,1},
    {11,0},
    {11,0,9},
    {11,0,3,2},
    {11,0,3},
    {11,0,9,4},
    {11,0,9,5},
    {11,0,7,6},
    {11,1},
    {11,0,7},
    {11,0,8},
    {11,0,8},
    {11,0,9,5},
    {11,0,9},
    {11,0,3,10},
    {11,0,3},
    {11,0,3,10,12},
    {11},
    {11,0,7},
    {11,0},
    {3},
    {3,0},
    {3,1},
    {3,0},
    {3,9},
    {2},
    {3},
    {3,9,4},
    {3,9,5},
    {3,10,6},
    {3,1},
    {3,0,7},
    {8},
    {8},
    {3,10,12},
    {3,9},
    {3,10},
    {3,0,11},
    {3,10,12},
    {3},
    {3,0,7},
    {3,0},
    {12,10,3},
    {12,10,3,0},
    {12,10,6,1},
    {12,5,9},
    {12,5,4},
    {12,10,3,2},
    {12,10,3},
    {12,5,4},
    {12,5},
    {12,10,6},
    {12,10,6},
    {12,7},
    {12,10,8},
    {12,10,8},
    {12},
    {12,5,9},
    {12,10},
    {12,10,3,0,11},
    {12,10,3},
    {12,10,3},
    {12},
    {12,10},
    {1},
    {3,0},
    {1},
    {3,0},
    {1,9},
    {3,2},
    {3},
    {1,9,4},
    {1,9,5},
    {1,6},
    {1},
    {3,0,7},
    {3,0,8},
    {1},
    {3,10,12},
    {1,9},
    {3,10},
    {11},
    {3},
    {3,10,12},
    {3,0,7},
    {3,0},
    {7,0,3},
    {7,0},
    {7,6,1},
    {7,0},
    {7,6,9},
    {7,0,3,2},
    {7,0,3},
    {12,5,4},
    {12,5},
    {7,6},
    {7,6},
    {7},
    {7,0,8},
    {7,6,1},
    {12},
    {7,6,9},
    {12,10},
    {7,0,11},
    {7,0,3},
    {12},
    {7,0,3},
    {7,0},
    {0,3},
    {0},
    {10,6,1},
    {0},
    {0,9},
    {0,3,2},
    {0,3},
    {0,9,4},
    {0,9,5},
    {10,6},
    {10,6},
    {0,7},
    {0,8},
    {0,8},
    {10,12},
    {0,9},
    {10},
    {0,11},
    {0,3},
    {10,12},
    {0,3},
    {0,7}];
weight=[292,256,242,268,291,246,283,249,220,230,298,234,262,245,208,232,263,207,243,266,206,215,300,225,271,240,238,201,283,209,269,239,274,235,216,265,219,210,299,238,226,200,248,243,245,257,202,259,286,271,212,287,276,225,243,254,238,289,292,235,203,223,231,242,229,266,231,278,228,291,268,256,273,273,217,271,255,300,232,244,289,224,249,219,213,253,206,282,291,226,214,261,235,242,284,250,254,242,295,200,264,207,278,267,255,293,248,300,246,249,300,268,229,279,226,246,220,251,207,241,235,289,204,211,278,227,296,260,263,252,210,219,257,253,296,271,299,273,299,247,211,247,239,231,279,230,285,254,243,222,234,203,297,298,288,245,252,274,227,258,247,273,270,217,271,232,229,258,211,213,296,273,226,228,295,220,262,300,295,257,230,283,227,278,234,278,235,265,201,207,241,269,290,281,223,290,219,257,241,297,254,241,271,245,267,230,277,241,289,259,291,267,211,274,229,271,217,271,205,220,247,234,225,278,244,207,258,218,279,256,276,252,255,262,262,214,239,250,242,204,296,244,267,247,235,273,266,269,278,237,255,253,276,260,202,232,222,287,206,206,234,213,281,255,248,277,240,219,223,270,276,298,299,230,214,291,221,233,295,215,284,219,247,296,220,282,249,285,222,209,292,263,246,250,270,250,258,206,286,208,256,275,276,299,273,284,202,293,229,256,227,290,248,215,230,258,201,258,209,278,254,244,267,280,293,240,213,215,287,255,210,253,290,212,281,268,265,221,287,255,238,264,259,203,290,284,296,277,225,218,207,298,242,300,229,297,259,270,238,266,252,284,208,215,266,250,238,249,207,211,280,241,279,297,259,244,278,215,239,223,282,249,213,218,207,240,292,205,230,280,299,215,240,291,258,294,262,234,203,294,237,287,239,299,225,272,214,246,248,292,264,271,230,270,295,251,211,226,205,238,297,203,202,281,257,233,210,207,296,234,268,284,296,252,215,277,237,202,299,202,247,280,290,234,268,254,257,295,231,264,297,221,209,299,233,263,284,204,238,246,255,207,250,269,246,295,221,255,233,218,277,262,267,205,234,261,267,295,244,292,232,245,292,300,209,273,257,257,210,294,256,286,282,262,213,219,271,263,296,205,220,269,250,212,219,300];
N=[10776,9101,8543,38508,4856,373,7423,6814,3448,9814,18326,3690,9865];
